p edge 358 1852
e 1 2
e 1 3
e 1 4
e 1 5
e 1 6
e 1 7
e 1 8
e 1 9
e 1 10
e 1 11
e 1 12
e 1 13
e 1 14
e 1 15
e 1 16
e 1 17
e 1 18
e 1 19
e 1 20
e 1 21
e 1 22
e 1 23
e 1 24
e 1 25
e 1 26
e 1 27
e 1 28
e 1 29
e 1 30
e 1 31
e 1 32
e 1 33
e 1 34
e 1 35
e 1 36
e 1 37
e 1 38
e 1 39
e 1 40
e 1 41
e 1 42
e 1 43
e 1 44
e 1 45
e 1 46
e 1 47
e 1 48
e 1 49
e 1 50
e 1 51
e 1 52
e 1 53
e 1 54
e 1 55
e 1 56
e 1 57
e 1 58
e 1 59
e 1 60
e 1 61
e 1 62
e 1 63
e 1 64
e 1 65
e 1 66
e 1 67
e 1 68
e 1 69
e 1 70
e 1 71
e 1 72
e 1 73
e 1 74
e 1 75
e 1 76
e 1 77
e 1 78
e 1 79
e 1 80
e 1 81
e 1 82
e 1 83
e 1 84
e 1 85
e 1 86
e 1 87
e 1 88
e 1 89
e 1 90
e 1 91
e 1 92
e 1 93
e 1 94
e 1 95
e 1 96
e 1 97
e 1 98
e 1 99
e 1 100
e 1 101
e 1 102
e 1 103
e 1 104
e 1 105
e 1 106
e 1 107
e 1 108
e 1 109
e 1 110
e 1 111
e 1 112
e 1 113
e 1 114
e 1 115
e 1 116
e 1 117
e 1 118
e 1 119
e 1 120
e 1 121
e 1 122
e 1 123
e 1 124
e 1 125
e 1 126
e 1 128
e 1 130
e 1 131
e 1 132
e 1 133
e 1 134
e 1 135
e 1 136
e 1 137
e 1 138
e 1 139
e 1 140
e 1 141
e 1 142
e 1 143
e 1 144
e 1 145
e 1 146
e 1 147
e 1 148
e 1 150
e 1 152
e 1 153
e 1 154
e 1 155
e 1 156
e 1 157
e 1 158
e 1 159
e 1 160
e 1 161
e 1 162
e 1 163
e 1 164
e 1 165
e 1 166
e 1 167
e 1 168
e 1 169
e 1 170
e 1 171
e 1 173
e 1 175
e 1 176
e 1 177
e 1 178
e 1 179
e 1 180
e 1 181
e 1 182
e 1 183
e 1 184
e 1 185
e 1 186
e 1 187
e 1 188
e 1 189
e 1 190
e 1 191
e 1 192
e 1 194
e 1 196
e 1 197
e 1 198
e 1 199
e 1 200
e 1 201
e 1 202
e 1 203
e 1 204
e 1 205
e 1 206
e 1 207
e 1 208
e 1 209
e 1 210
e 1 211
e 1 213
e 1 215
e 1 216
e 1 217
e 1 218
e 1 219
e 1 220
e 1 221
e 1 222
e 1 223
e 1 224
e 1 225
e 1 226
e 1 227
e 1 228
e 1 229
e 1 230
e 1 231
e 1 232
e 1 234
e 1 236
e 1 237
e 1 238
e 1 239
e 1 240
e 1 241
e 1 242
e 1 243
e 1 244
e 1 245
e 1 246
e 1 247
e 1 248
e 1 249
e 1 250
e 1 251
e 1 252
e 1 253
e 1 254
e 1 255
e 1 257
e 1 259
e 1 260
e 1 261
e 1 262
e 1 263
e 1 264
e 1 265
e 1 266
e 1 267
e 1 268
e 1 269
e 1 270
e 1 271
e 1 272
e 1 273
e 1 274
e 1 275
e 1 276
e 1 278
e 1 280
e 1 281
e 1 282
e 1 283
e 1 284
e 1 285
e 1 286
e 1 287
e 1 288
e 1 289
e 1 290
e 1 291
e 1 292
e 1 293
e 1 294
e 1 295
e 1 297
e 1 299
e 1 300
e 1 301
e 1 302
e 1 303
e 1 304
e 1 305
e 1 306
e 1 307
e 1 308
e 1 309
e 1 310
e 1 311
e 1 312
e 1 313
e 1 314
e 1 316
e 1 318
e 1 319
e 1 320
e 1 321
e 1 322
e 1 323
e 1 324
e 1 325
e 1 326
e 1 327
e 1 328
e 1 329
e 1 330
e 1 331
e 1 332
e 1 333
e 1 334
e 1 335
e 1 337
e 1 339
e 1 340
e 1 341
e 1 342
e 1 343
e 1 344
e 1 345
e 1 346
e 1 347
e 1 348
e 1 349
e 1 350
e 1 351
e 1 352
e 1 353
e 1 354
e 1 355
e 1 356
e 1 357
e 1 358
e 2 3
e 2 90
e 2 91
e 2 92
e 2 93
e 2 346
e 3 91
e 3 92
e 3 93
e 3 346
e 4 5
e 4 6
e 4 95
e 4 96
e 4 97
e 4 98
e 5 6
e 5 95
e 5 96
e 5 97
e 5 98
e 6 7
e 6 8
e 6 9
e 6 10
e 6 11
e 6 12
e 6 13
e 6 14
e 6 15
e 6 16
e 6 17
e 6 18
e 6 19
e 6 20
e 6 21
e 6 22
e 6 23
e 6 24
e 6 25
e 6 26
e 6 27
e 6 28
e 6 29
e 6 30
e 6 31
e 6 32
e 6 33
e 6 34
e 6 35
e 6 36
e 6 37
e 6 38
e 6 39
e 6 40
e 6 41
e 6 42
e 6 43
e 6 44
e 6 45
e 6 46
e 6 47
e 6 48
e 6 49
e 6 50
e 6 51
e 6 52
e 6 53
e 6 54
e 6 55
e 6 56
e 6 57
e 6 58
e 6 59
e 6 60
e 6 61
e 6 62
e 6 63
e 6 64
e 6 65
e 6 66
e 6 67
e 6 68
e 6 69
e 6 70
e 6 71
e 6 72
e 6 73
e 6 74
e 6 75
e 6 76
e 6 77
e 6 78
e 6 79
e 6 80
e 6 81
e 6 82
e 6 83
e 6 84
e 6 85
e 6 86
e 6 88
e 6 95
e 6 96
e 6 97
e 6 98
e 6 99
e 6 100
e 6 101
e 6 102
e 6 103
e 6 104
e 6 105
e 6 106
e 6 107
e 6 108
e 6 109
e 6 110
e 6 111
e 6 112
e 6 113
e 6 114
e 6 115
e 6 116
e 6 117
e 6 118
e 6 119
e 6 120
e 6 121
e 6 122
e 6 123
e 6 124
e 6 125
e 6 126
e 6 128
e 6 130
e 6 131
e 6 132
e 6 133
e 6 134
e 6 135
e 6 136
e 6 137
e 6 138
e 6 139
e 6 140
e 6 141
e 6 142
e 6 143
e 6 144
e 6 145
e 6 146
e 6 147
e 6 148
e 6 150
e 6 152
e 6 153
e 6 154
e 6 155
e 6 156
e 6 157
e 6 158
e 6 159
e 6 160
e 6 161
e 6 162
e 6 163
e 6 164
e 6 165
e 6 166
e 6 167
e 6 168
e 6 169
e 6 170
e 6 171
e 6 173
e 6 175
e 6 176
e 6 177
e 6 178
e 6 179
e 6 180
e 6 181
e 6 182
e 6 183
e 6 184
e 6 185
e 6 186
e 6 187
e 6 188
e 6 189
e 6 190
e 6 191
e 6 192
e 6 194
e 6 196
e 6 197
e 6 198
e 6 199
e 6 200
e 6 201
e 6 202
e 6 203
e 6 204
e 6 205
e 6 206
e 6 207
e 6 208
e 6 209
e 6 210
e 6 211
e 6 213
e 6 215
e 6 216
e 6 217
e 6 218
e 6 219
e 6 220
e 6 221
e 6 222
e 6 223
e 6 224
e 6 225
e 6 226
e 6 227
e 6 228
e 6 229
e 6 230
e 6 231
e 6 232
e 6 234
e 6 236
e 6 237
e 6 238
e 6 239
e 6 240
e 6 241
e 6 242
e 6 243
e 6 244
e 6 245
e 6 246
e 6 247
e 6 248
e 6 249
e 6 250
e 6 251
e 6 252
e 6 253
e 6 254
e 6 255
e 6 257
e 6 259
e 6 260
e 6 261
e 6 262
e 6 263
e 6 264
e 6 265
e 6 266
e 6 267
e 6 268
e 6 269
e 6 270
e 6 271
e 6 272
e 6 273
e 6 274
e 6 275
e 6 276
e 6 278
e 6 280
e 6 281
e 6 282
e 6 283
e 6 284
e 6 285
e 6 286
e 6 287
e 6 288
e 6 289
e 6 290
e 6 291
e 6 292
e 6 293
e 6 294
e 6 295
e 6 297
e 6 299
e 6 300
e 6 301
e 6 302
e 6 303
e 6 304
e 6 305
e 6 306
e 6 307
e 6 308
e 6 309
e 6 310
e 6 311
e 6 312
e 6 313
e 6 314
e 6 316
e 6 318
e 6 319
e 6 320
e 6 321
e 6 322
e 6 323
e 6 324
e 6 325
e 6 326
e 6 327
e 6 328
e 6 329
e 6 330
e 6 331
e 6 332
e 6 333
e 6 334
e 6 335
e 6 337
e 6 339
e 6 340
e 6 341
e 6 342
e 6 343
e 6 344
e 6 345
e 6 347
e 6 348
e 6 349
e 6 350
e 6 351
e 6 352
e 6 353
e 6 354
e 6 355
e 6 356
e 6 357
e 6 358
e 7 8
e 7 9
e 7 11
e 7 12
e 7 13
e 7 14
e 7 15
e 7 16
e 7 17
e 7 18
e 7 19
e 7 22
e 7 23
e 7 25
e 7 26
e 7 27
e 7 28
e 7 29
e 7 31
e 7 32
e 7 33
e 7 34
e 7 35
e 7 37
e 7 38
e 7 39
e 7 40
e 7 41
e 7 42
e 7 43
e 7 44
e 7 45
e 7 46
e 7 47
e 7 48
e 7 49
e 7 50
e 7 53
e 7 54
e 7 56
e 7 57
e 7 58
e 7 59
e 7 60
e 7 62
e 7 63
e 7 64
e 7 65
e 7 67
e 7 68
e 7 69
e 7 70
e 7 71
e 7 73
e 7 74
e 7 75
e 7 76
e 7 77
e 7 78
e 7 79
e 7 80
e 7 81
e 7 82
e 7 83
e 7 110
e 7 111
e 7 112
e 7 113
e 7 114
e 7 115
e 7 116
e 7 117
e 7 118
e 7 119
e 7 120
e 7 125
e 7 126
e 7 128
e 7 130
e 7 131
e 7 132
e 7 133
e 7 134
e 7 135
e 7 136
e 7 137
e 7 138
e 7 139
e 7 140
e 7 141
e 7 142
e 7 143
e 7 144
e 7 148
e 7 150
e 7 152
e 7 153
e 7 154
e 7 155
e 7 156
e 7 157
e 7 158
e 7 159
e 7 160
e 7 161
e 7 162
e 7 163
e 7 164
e 7 165
e 7 166
e 7 167
e 7 171
e 7 173
e 7 175
e 7 176
e 7 177
e 7 178
e 7 179
e 7 180
e 7 181
e 7 182
e 7 183
e 7 184
e 7 185
e 7 186
e 7 187
e 7 188
e 7 192
e 7 194
e 7 196
e 7 197
e 7 198
e 7 199
e 7 200
e 7 201
e 7 202
e 7 203
e 7 204
e 7 205
e 7 206
e 7 207
e 7 211
e 7 213
e 7 215
e 7 216
e 7 217
e 7 218
e 7 219
e 7 220
e 7 221
e 7 222
e 7 223
e 7 224
e 7 225
e 7 226
e 7 227
e 7 228
e 7 232
e 7 234
e 7 236
e 7 237
e 7 238
e 7 239
e 7 240
e 7 241
e 7 242
e 7 243
e 7 244
e 7 245
e 7 246
e 7 247
e 7 248
e 7 249
e 7 250
e 7 251
e 7 255
e 7 257
e 7 259
e 7 260
e 7 261
e 7 262
e 7 263
e 7 264
e 7 265
e 7 266
e 7 267
e 7 268
e 7 269
e 7 270
e 7 271
e 7 272
e 7 276
e 7 278
e 7 280
e 7 281
e 7 282
e 7 283
e 7 284
e 7 285
e 7 286
e 7 287
e 7 288
e 7 289
e 7 290
e 7 291
e 7 295
e 7 297
e 7 299
e 7 300
e 7 301
e 7 302
e 7 303
e 7 304
e 7 305
e 7 306
e 7 307
e 7 308
e 7 309
e 7 310
e 7 314
e 7 316
e 7 318
e 7 319
e 7 320
e 7 321
e 7 322
e 7 323
e 7 324
e 7 325
e 7 326
e 7 327
e 7 328
e 7 329
e 7 330
e 7 331
e 7 335
e 7 337
e 7 339
e 7 347
e 7 348
e 7 349
e 7 350
e 7 351
e 7 352
e 7 353
e 7 354
e 7 355
e 8 126
e 9 128
e 10 122
e 10 357
e 11 12
e 11 130
e 12 130
e 13 132
e 14 132
e 14 150
e 15 16
e 15 132
e 15 152
e 16 132
e 16 152
e 17 18
e 17 19
e 17 20
e 17 21
e 17 22
e 17 23
e 17 24
e 17 25
e 17 26
e 17 27
e 17 28
e 17 29
e 17 30
e 17 31
e 17 32
e 17 33
e 17 34
e 17 35
e 17 36
e 17 37
e 17 38
e 17 39
e 17 40
e 17 41
e 17 42
e 17 43
e 17 44
e 17 45
e 17 46
e 17 47
e 17 48
e 17 49
e 17 50
e 17 51
e 17 52
e 17 53
e 17 54
e 17 55
e 17 56
e 17 57
e 17 58
e 17 59
e 17 60
e 17 61
e 17 62
e 17 63
e 17 64
e 17 65
e 17 66
e 17 67
e 17 68
e 17 69
e 17 70
e 17 72
e 17 132
e 17 153
e 17 154
e 17 155
e 17 156
e 17 157
e 17 158
e 17 159
e 17 160
e 17 161
e 17 162
e 17 163
e 17 164
e 17 165
e 17 166
e 17 167
e 17 168
e 17 171
e 17 173
e 17 175
e 17 176
e 17 177
e 17 178
e 17 179
e 17 180
e 17 181
e 17 182
e 17 183
e 17 184
e 17 185
e 17 186
e 17 187
e 17 188
e 17 189
e 17 192
e 17 194
e 17 196
e 17 197
e 17 198
e 17 199
e 17 200
e 17 201
e 17 202
e 17 203
e 17 204
e 17 205
e 17 206
e 17 207
e 17 208
e 17 211
e 17 213
e 17 215
e 17 216
e 17 217
e 17 218
e 17 219
e 17 220
e 17 221
e 17 222
e 17 223
e 17 224
e 17 225
e 17 226
e 17 227
e 17 228
e 17 232
e 17 234
e 17 236
e 17 237
e 17 238
e 17 239
e 17 240
e 17 241
e 17 242
e 17 243
e 17 244
e 17 245
e 17 246
e 17 247
e 17 248
e 17 249
e 17 250
e 17 251
e 17 252
e 17 255
e 17 257
e 17 259
e 17 260
e 17 261
e 17 262
e 17 263
e 17 264
e 17 265
e 17 266
e 17 267
e 17 268
e 17 269
e 17 270
e 17 271
e 17 272
e 17 273
e 17 276
e 17 278
e 17 280
e 17 281
e 17 282
e 17 283
e 17 284
e 17 285
e 17 286
e 17 287
e 17 288
e 17 289
e 17 290
e 17 291
e 17 292
e 17 295
e 17 297
e 17 299
e 17 300
e 17 301
e 17 302
e 17 303
e 17 304
e 17 305
e 17 306
e 17 307
e 17 308
e 17 309
e 17 310
e 17 311
e 17 314
e 17 348
e 17 349
e 17 350
e 17 351
e 17 352
e 17 357
e 18 132
e 18 155
e 19 132
e 19 155
e 20 357
e 21 357
e 22 132
e 22 155
e 23 132
e 23 155
e 23 173
e 24 357
e 25 26
e 25 132
e 25 155
e 25 175
e 26 132
e 26 155
e 26 175
e 27 132
e 27 155
e 27 341
e 28 132
e 29 132
e 29 194
e 30 357
e 31 32
e 31 132
e 31 196
e 32 132
e 32 196
e 33 34
e 33 35
e 33 37
e 33 38
e 33 39
e 33 40
e 33 41
e 33 42
e 33 43
e 33 44
e 33 45
e 33 46
e 33 47
e 33 48
e 33 49
e 33 50
e 33 53
e 33 54
e 33 56
e 33 57
e 33 58
e 33 59
e 33 60
e 33 62
e 33 63
e 33 64
e 33 65
e 33 67
e 33 68
e 33 69
e 33 70
e 33 71
e 33 73
e 33 74
e 33 75
e 33 76
e 33 77
e 33 78
e 33 79
e 33 80
e 33 81
e 33 132
e 33 197
e 33 198
e 33 199
e 33 200
e 33 201
e 33 202
e 33 203
e 33 204
e 33 205
e 33 206
e 33 207
e 33 211
e 33 213
e 33 215
e 33 216
e 33 217
e 33 218
e 33 219
e 33 220
e 33 221
e 33 222
e 33 223
e 33 224
e 33 225
e 33 226
e 33 227
e 33 228
e 33 232
e 33 234
e 33 236
e 33 237
e 33 238
e 33 239
e 33 240
e 33 241
e 33 242
e 33 243
e 33 244
e 33 245
e 33 246
e 33 247
e 33 248
e 33 249
e 33 250
e 33 251
e 33 255
e 33 257
e 33 259
e 33 260
e 33 261
e 33 262
e 33 263
e 33 264
e 33 265
e 33 266
e 33 267
e 33 268
e 33 269
e 33 270
e 33 271
e 33 272
e 33 276
e 33 278
e 33 280
e 33 281
e 33 282
e 33 283
e 33 284
e 33 285
e 33 286
e 33 287
e 33 288
e 33 289
e 33 290
e 33 291
e 33 295
e 33 297
e 33 299
e 33 300
e 33 301
e 33 302
e 33 303
e 33 304
e 33 305
e 33 306
e 33 307
e 33 308
e 33 309
e 33 310
e 33 314
e 33 316
e 33 318
e 33 319
e 33 320
e 33 321
e 33 322
e 33 323
e 33 324
e 33 325
e 33 326
e 33 327
e 33 328
e 33 329
e 33 330
e 33 331
e 33 335
e 33 337
e 33 339
e 33 348
e 33 349
e 33 350
e 33 351
e 33 352
e 33 353
e 33 354
e 34 132
e 35 132
e 35 213
e 36 357
e 37 38
e 37 132
e 37 215
e 38 132
e 38 215
e 39 132
e 40 132
e 40 234
e 41 42
e 41 132
e 41 236
e 42 132
e 42 236
e 43 44
e 43 132
e 43 350
e 43 351
e 44 132
e 44 350
e 44 351
e 45 132
e 45 349
e 45 350
e 46 47
e 46 48
e 46 132
e 46 352
e 47 48
e 47 132
e 47 352
e 48 132
e 48 352
e 49 132
e 49 239
e 50 132
e 50 239
e 51 357
e 52 357
e 53 132
e 53 239
e 54 132
e 54 239
e 54 257
e 55 357
e 56 57
e 56 132
e 56 239
e 56 259
e 57 132
e 57 239
e 57 259
e 58 132
e 58 239
e 58 340
e 59 132
e 60 132
e 60 278
e 61 357
e 62 63
e 62 132
e 62 280
e 63 132
e 63 280
e 64 132
e 65 132
e 65 297
e 66 357
e 67 68
e 67 132
e 67 299
e 68 132
e 68 299
e 69 70
e 69 71
e 69 73
e 69 74
e 69 75
e 69 76
e 69 77
e 69 78
e 69 79
e 69 132
e 69 300
e 69 301
e 69 302
e 69 303
e 69 304
e 69 305
e 69 306
e 69 307
e 69 308
e 69 309
e 69 310
e 69 314
e 69 316
e 69 318
e 69 319
e 69 320
e 69 321
e 69 322
e 69 323
e 69 324
e 69 325
e 69 326
e 69 327
e 69 328
e 69 329
e 69 330
e 69 331
e 69 335
e 69 337
e 69 339
e 69 353
e 70 132
e 71 132
e 71 316
e 72 357
e 73 74
e 73 132
e 73 318
e 74 132
e 74 318
e 76 337
e 77 78
e 77 339
e 78 339
e 80 354
e 82 355
e 84 356
e 88 357
e 89 357
e 91 92
e 93 346
e 95 96
e 100 101
e 102 103
e 104 105
e 106 107
e 108 109
e 111 112
e 111 113
e 111 114
e 111 115
e 112 113
e 112 114
e 112 115
e 113 114
e 113 115
e 114 115
e 116 117
e 116 118
e 117 118
e 119 120
e 121 357
e 122 357
e 123 357
e 124 357
e 131 132
e 131 133
e 132 133
e 132 134
e 132 135
e 132 136
e 132 137
e 132 138
e 132 139
e 132 140
e 132 141
e 132 142
e 132 143
e 132 144
e 132 148
e 132 150
e 132 152
e 132 153
e 132 154
e 132 155
e 132 156
e 132 157
e 132 158
e 132 159
e 132 160
e 132 161
e 132 162
e 132 163
e 132 164
e 132 165
e 132 166
e 132 167
e 132 171
e 132 173
e 132 175
e 132 176
e 132 177
e 132 178
e 132 179
e 132 180
e 132 181
e 132 182
e 132 183
e 132 184
e 132 185
e 132 186
e 132 187
e 132 188
e 132 192
e 132 194
e 132 196
e 132 197
e 132 198
e 132 199
e 132 200
e 132 201
e 132 202
e 132 203
e 132 204
e 132 205
e 132 206
e 132 207
e 132 211
e 132 213
e 132 215
e 132 216
e 132 217
e 132 218
e 132 219
e 132 220
e 132 221
e 132 222
e 132 223
e 132 224
e 132 225
e 132 226
e 132 227
e 132 228
e 132 232
e 132 234
e 132 236
e 132 237
e 132 238
e 132 239
e 132 240
e 132 241
e 132 242
e 132 243
e 132 244
e 132 245
e 132 246
e 132 247
e 132 248
e 132 249
e 132 250
e 132 251
e 132 255
e 132 257
e 132 259
e 132 260
e 132 261
e 132 262
e 132 263
e 132 264
e 132 265
e 132 266
e 132 267
e 132 268
e 132 269
e 132 270
e 132 271
e 132 272
e 132 276
e 132 278
e 132 280
e 132 281
e 132 282
e 132 283
e 132 284
e 132 285
e 132 286
e 132 287
e 132 288
e 132 289
e 132 290
e 132 291
e 132 295
e 132 297
e 132 299
e 132 300
e 132 301
e 132 302
e 132 303
e 132 304
e 132 305
e 132 306
e 132 307
e 132 308
e 132 309
e 132 310
e 132 314
e 132 316
e 132 318
e 132 319
e 132 320
e 132 347
e 132 348
e 132 349
e 132 350
e 132 351
e 132 352
e 134 135
e 134 136
e 134 137
e 134 138
e 135 136
e 135 137
e 135 138
e 136 137
e 136 138
e 137 138
e 141 142
e 141 347
e 142 347
e 143 144
e 145 357
e 146 357
e 147 357
e 153 154
e 153 155
e 153 156
e 154 155
e 154 156
e 155 156
e 155 157
e 155 158
e 155 159
e 155 160
e 155 161
e 155 162
e 155 163
e 155 164
e 155 165
e 155 166
e 155 167
e 155 171
e 155 173
e 155 175
e 158 159
e 158 160
e 158 161
e 158 162
e 159 160
e 159 161
e 159 162
e 160 161
e 160 162
e 161 162
e 163 164
e 163 165
e 164 165
e 166 167
e 168 357
e 169 357
e 170 357
e 176 177
e 179 180
e 179 181
e 179 182
e 179 183
e 180 181
e 180 182
e 180 183
e 181 182
e 181 183
e 182 183
e 184 185
e 184 186
e 185 186
e 187 188
e 189 357
e 190 357
e 191 357
e 198 199
e 198 200
e 198 201
e 198 202
e 199 200
e 199 201
e 199 202
e 200 201
e 200 202
e 201 202
e 203 204
e 203 205
e 204 205
e 206 207
e 208 357
e 209 357
e 210 357
e 216 217
e 218 219
e 218 220
e 218 221
e 218 222
e 219 220
e 219 221
e 219 222
e 220 221
e 220 222
e 221 222
e 225 226
e 225 348
e 226 348
e 227 228
e 229 357
e 230 357
e 231 357
e 237 238
e 237 239
e 237 240
e 238 239
e 238 240
e 239 240
e 239 241
e 239 242
e 239 243
e 239 244
e 239 245
e 239 246
e 239 247
e 239 248
e 239 249
e 239 250
e 239 251
e 239 255
e 239 257
e 239 259
e 242 243
e 242 244
e 242 245
e 242 246
e 243 244
e 243 245
e 243 246
e 244 245
e 244 246
e 245 246
e 247 248
e 247 249
e 248 249
e 250 251
e 252 357
e 253 357
e 254 357
e 260 261
e 263 264
e 263 265
e 263 266
e 263 267
e 264 265
e 264 266
e 264 267
e 265 266
e 265 267
e 266 267
e 268 269
e 268 270
e 269 270
e 271 272
e 273 357
e 274 357
e 275 357
e 282 283
e 282 284
e 282 285
e 282 286
e 283 284
e 283 285
e 283 286
e 284 285
e 284 286
e 285 286
e 287 288
e 287 289
e 288 289
e 290 291
e 292 357
e 293 357
e 294 357
e 301 302
e 301 303
e 301 304
e 301 305
e 302 303
e 302 304
e 302 305
e 303 304
e 303 305
e 304 305
e 306 307
e 306 308
e 307 308
e 309 310
e 311 357
e 312 357
e 313 357
e 319 320
e 321 322
e 321 323
e 321 324
e 321 325
e 322 323
e 322 324
e 322 325
e 323 324
e 323 325
e 324 325
e 328 329
e 328 353
e 329 353
e 330 331
e 332 357
e 333 357
e 334 357
e 342 357
e 343 357
e 344 357
e 349 350
e 350 351
e 357 358
